(set-logic HORN)
(declare-fun assign_26_10_282_abs01 (Int Int Int Int Int Int) Bool)
(declare-fun assert_25_3_273_abs01 (Int Int Int Int Int Int) Bool)
(declare-fun while_22_8_285_abs01 (Int Int Int Int Int Int) Bool)
(declare-fun assign_20_8_187_abs01 (Int Int Int Int Int Int) Bool)
(declare-fun assign_18_1_151_abs01 (Int Int Int Int Int Int) Bool)
(declare-fun assign_15_5_112_abs01 (Int Int Int Int Int Int) Bool)
(declare-fun arrayassign_14_5_103_abs01 (Int Int Int Int Int Int) Bool)
(declare-fun while_12_1_115_abs01 (Int Int Int Int Int Int) Bool)
(declare-fun assign_11_1_46_abs01 (Int Int Int Int Int Int) Bool)
(declare-fun end_abs01 (Int Int Int Int Int Int) Bool)
(declare-fun start_abs01 (Int Int Int Int Int Int) Bool)
(assert (forall ((dest (Array Int Int)) (source (Array Int Int)) (l Int) (i Int) (vabs_f_f Int) (vabs_s_f_f Int)) (start_abs01 vabs_f_f (select dest vabs_f_f) vabs_s_f_f (select source vabs_s_f_f) l i)))
(assert (forall ((i Int) (l Int) (source (Array Int Int)) (dest (Array Int Int)) (vabs_0_f_f Int) (vabs_0_s_f_f Int)) (=> (start_abs01 vabs_0_f_f (select dest vabs_0_f_f) vabs_0_s_f_f (select source vabs_0_s_f_f) l i) (assign_11_1_46_abs01 vabs_0_f_f (select dest vabs_0_f_f) vabs_0_s_f_f (select source vabs_0_s_f_f) l i))))
(assert (forall ((i Int) (l Int) (source (Array Int Int)) (dest (Array Int Int)) (vabs_0_f_f Int) (vabs_0_s_f_f Int)) (=> (assign_11_1_46_abs01 vabs_0_f_f (select dest vabs_0_f_f) vabs_0_s_f_f (select source vabs_0_s_f_f) l i) (while_12_1_115_abs01 vabs_0_f_f (select dest vabs_0_f_f) vabs_0_s_f_f (select source vabs_0_s_f_f) l 0))))
(assert (forall ((dest (Array Int Int)) (source (Array Int Int)) (l Int) (i Int) (vabs_0_f_f Int) (vabs_0_s_f_f Int)) (=> (and (while_12_1_115_abs01 vabs_0_f_f (select dest vabs_0_f_f) i (select source i) l i) (while_12_1_115_abs01 vabs_0_f_f (select dest vabs_0_f_f) vabs_0_s_f_f (select source vabs_0_s_f_f) l i) (not (= (select source i) 0))) (arrayassign_14_5_103_abs01 vabs_0_f_f (select dest vabs_0_f_f) vabs_0_s_f_f (select source vabs_0_s_f_f) l i))))
(assert (forall ((dest (Array Int Int)) (source (Array Int Int)) (l Int) (i Int) (vabs_0_f_f Int) (vabs_0_s_f_f Int)) (=> (and (while_12_1_115_abs01 vabs_0_f_f (select dest vabs_0_f_f) i (select source i) l i) (while_12_1_115_abs01 vabs_0_f_f (select dest vabs_0_f_f) vabs_0_s_f_f (select source vabs_0_s_f_f) l i) (not (not (= (select source i) 0)))) (assign_18_1_151_abs01 vabs_0_f_f (select dest vabs_0_f_f) vabs_0_s_f_f (select source vabs_0_s_f_f) l i))))
(assert (forall ((i Int) (l Int) (source (Array Int Int)) (dest (Array Int Int)) (vabs_0_f_f Int) (vabs_0_s_f_f Int)) (=> (and (arrayassign_14_5_103_abs01 vabs_0_f_f (select dest vabs_0_f_f) vabs_0_s_f_f (select source vabs_0_s_f_f) l i) (arrayassign_14_5_103_abs01 vabs_0_f_f (select dest vabs_0_f_f) i (select source i) l i)) (assign_15_5_112_abs01 vabs_0_f_f (select (store dest i (select source i)) vabs_0_f_f) vabs_0_s_f_f (select source vabs_0_s_f_f) l i))))
(assert (forall ((i Int) (l Int) (source (Array Int Int)) (dest (Array Int Int)) (vabs_0_f_f Int) (vabs_0_s_f_f Int)) (=> (assign_15_5_112_abs01 vabs_0_f_f (select dest vabs_0_f_f) vabs_0_s_f_f (select source vabs_0_s_f_f) l i) (while_12_1_115_abs01 vabs_0_f_f (select dest vabs_0_f_f) vabs_0_s_f_f (select source vabs_0_s_f_f) l (+ i 1)))))
(assert (forall ((i Int) (l Int) (source (Array Int Int)) (dest (Array Int Int)) (vabs_0_f_f Int) (vabs_0_s_f_f Int)) (=> (assign_18_1_151_abs01 vabs_0_f_f (select dest vabs_0_f_f) vabs_0_s_f_f (select source vabs_0_s_f_f) l i) (assign_20_8_187_abs01 vabs_0_f_f (select dest vabs_0_f_f) vabs_0_s_f_f (select source vabs_0_s_f_f) i i))))
(assert (forall ((i Int) (l Int) (source (Array Int Int)) (dest (Array Int Int)) (vabs_0_f_f Int) (vabs_0_s_f_f Int)) (=> (assign_20_8_187_abs01 vabs_0_f_f (select dest vabs_0_f_f) vabs_0_s_f_f (select source vabs_0_s_f_f) l i) (while_22_8_285_abs01 vabs_0_f_f (select dest vabs_0_f_f) vabs_0_s_f_f (select source vabs_0_s_f_f) l 0))))
(assert (forall ((dest (Array Int Int)) (source (Array Int Int)) (l Int) (i Int) (vabs_0_f_f Int) (vabs_0_s_f_f Int)) (=> (and (while_22_8_285_abs01 vabs_0_f_f (select dest vabs_0_f_f) vabs_0_s_f_f (select source vabs_0_s_f_f) l i) (< i l)) (assert_25_3_273_abs01 vabs_0_f_f (select dest vabs_0_f_f) vabs_0_s_f_f (select source vabs_0_s_f_f) l i))))
(assert (forall ((dest (Array Int Int)) (source (Array Int Int)) (l Int) (i Int) (vabs_0_f_f Int) (vabs_0_s_f_f Int)) (=> (and (while_22_8_285_abs01 vabs_0_f_f (select dest vabs_0_f_f) vabs_0_s_f_f (select source vabs_0_s_f_f) l i) (not (< i l))) (end_abs01 vabs_0_f_f (select dest vabs_0_f_f) vabs_0_s_f_f (select source vabs_0_s_f_f) l i))))
(assert (forall ((i Int) (l Int) (source (Array Int Int)) (dest (Array Int Int))) (=> (assert_25_3_273_abs01 i (select dest i) i (select source i) l i) (= (select source i) (select dest i)))))
(assert (forall ((i Int) (l Int) (source (Array Int Int)) (dest (Array Int Int)) (vabs_0_f_f Int) (vabs_0_s_f_f Int)) (=> (assert_25_3_273_abs01 vabs_0_f_f (select dest vabs_0_f_f) vabs_0_s_f_f (select source vabs_0_s_f_f) l i) (assign_26_10_282_abs01 vabs_0_f_f (select dest vabs_0_f_f) vabs_0_s_f_f (select source vabs_0_s_f_f) l i))))
(assert (forall ((i Int) (l Int) (source (Array Int Int)) (dest (Array Int Int)) (vabs_0_f_f Int) (vabs_0_s_f_f Int)) (=> (assign_26_10_282_abs01 vabs_0_f_f (select dest vabs_0_f_f) vabs_0_s_f_f (select source vabs_0_s_f_f) l i) (while_22_8_285_abs01 vabs_0_f_f (select dest vabs_0_f_f) vabs_0_s_f_f (select source vabs_0_s_f_f) l (+ i 1)))))
(check-sat)